pair_style eam/alloy
pair_coeff * * Fe-C-Bec07.eam Fe C
